6 16 4 10
15 6 13 16 5 12 1 14 20 17 16 8 8 8 15 9 
6.04 6.61 6.37 7.51 6.91 6.58 5.53 5.1 2.94 5.75 6.13 6.04 4.85 1.06 1.37 3.48 
3.91 4.73 4.91 0.63 2.76 6.72 6.4 3.36 3.92 6.44 6.22 7.71 1.66 5.13 6.29 5.94 
5.68 0.16 5.42 0.1 4.95 1.33 6.73 2.06 2.3 2.85 0.03 2.04 4.22 4.7 1.81 3.99 
6.88 0.36 1.21 5.65 1.77 3.82 2.24 3.06 2.16 4.81 1.33 6.04 0.03 1.63 6 2.8 
4 4 4 4 4 4 4 4 4 4 4 4 4 4 4 4 
4.61 2.69 6.57 0.77 4.01 5.11 4.44 3.9 7.11 1.97 3.64 6.11 4.96 7.17 0.64 2.39 
1 1 1 1 1 1 1 1 1 1 1 1 1 1 1 1 
1 1 1 1 1 1 1 1 1 1 1 1 1 1 1 1 
1 1 1 1 1 1 1 1 1 1 1 1 1 1 1 1 
1 1 1 1 1 1 1 1 1 1 1 1 1 1 1 1 
1 1 1 1 1 1 1 1 1 1 1 1 1 1 1 1 
1 1 1 1 1 1 1 1 1 1 1 1 1 1 1 1 
0.01 0.01 0.01 0.01 0.01 0.01 0.01 0.01 0.01 0.01 0.01 0.01 0.01 0.01 0.01 0.01 
0.02 0.02 0.02 0.02 0.02 0.02 0.02 0.02 0.02 0.02 0.02 0.02 0.02 0.02 0.02 0.02 
0.03 0.03 0.03 0.03 0.03 0.03 0.03 0.03 0.03 0.03 0.03 0.03 0.03 0.03 0.03 0.03 
0.04 0.04 0.04 0.04 0.04 0.04 0.04 0.04 0.04 0.04 0.04 0.04 0.04 0.04 0.04 0.04 
0.05 0.05 0.05 0.05 0.05 0.05 0.05 0.05 0.05 0.05 0.05 0.05 0.05 0.05 0.05 0.05 
1 1 1 1 1 1 1 1 1 1 1 1 1 1 1 1 
